Version identifier: 12.10.0.0 | 2019-11-26 | 843d4de
CPXPARAM_WorkMem                                 28672
Tried aggregator 2 times.
MIP Presolve modified 37 coefficients.
Aggregator did 30 substitutions.
Reduced MIP has 134 rows, 160 columns, and 620 nonzeros.
Reduced MIP has 160 binaries, 0 generals, 0 SOSs, and 0 indicators.
Presolve time = 0,00 sec. (0,83 ticks)
Found incumbent of value 640,000000 after 0,00 sec. (1,26 ticks)
Probing time = 0,00 sec. (0,23 ticks)
Tried aggregator 1 time.
Detecting symmetries...
MIP Presolve eliminated 24 rows and 0 columns.
MIP Presolve added 48 rows and 0 columns.
Reduced MIP has 158 rows, 160 columns, and 644 nonzeros.
Reduced MIP has 160 binaries, 0 generals, 0 SOSs, and 0 indicators.
Presolve time = 0,00 sec. (0,73 ticks)
Probing time = 0,00 sec. (0,22 ticks)
Clique table members: 430.
MIP emphasis: balance optimality and feasibility.
MIP search method: dynamic search.
Parallel mode: deterministic, using up to 16 threads.
Root relaxation solution time = 0,00 sec. (0,51 ticks)

        Nodes                                         Cuts/
   Node  Left     Objective  IInf  Best Integer    Best Bound    ItCnt     Gap

*     0+    0                          640,0000        0,0000           100,00%
*     0+    0                          259,0000        0,0000           100,00%
*     0+    0                          237,0000        0,0000           100,00%
      0     0      161,2500    32      237,0000      161,2500       80   31,96%
      0     0      162,8594    32      237,0000     Cuts: 109       98   31,28%
      0     0      164,2637    32      237,0000     Cuts: 120      119   30,69%
      0     0      165,1204    32      237,0000      Cuts: 83      128   30,33%
      0     0      165,9566    32      237,0000      Cuts: 66      148   29,98%
      0     0      166,2675    32      237,0000      Cuts: 74      160   29,84%
      0     0      166,6430    32      237,0000      Cuts: 50      177   29,69%
      0     0      167,1022    32      237,0000      Cuts: 68      206   29,49%
      0     0      167,5263    32      237,0000      Cuts: 74      237   29,31%
      0     0      167,7803    32      237,0000      Cuts: 41      258   29,21%
      0     0      168,2627    32      237,0000  ZeroHalf: 16      287   29,00%
      0     0      168,5883    32      237,0000      Cuts: 58      323   28,87%
      0     0      169,0405    32      237,0000      Cuts: 54      360   28,67%
      0     0      169,4121    32      237,0000      Cuts: 50      389   28,52%
      0     0      169,6056    32      237,0000      Cuts: 61      415   28,44%
      0     0      169,8661    32      237,0000      Cuts: 46      438   28,33%
      0     0      170,2026    32      237,0000      Cuts: 59      471   28,18%
      0     0      170,5916    32      237,0000      Cuts: 51      507   28,02%
      0     0      170,7507    32      237,0000      Cuts: 56      529   27,95%
      0     0      171,0471    32      237,0000      Cuts: 16      556   27,83%
      0     0      171,3911    32      237,0000  ZeroHalf: 15      582   27,68%
      0     0      171,5913    32      237,0000      Cuts: 19      603   27,60%
      0     0      171,6836    32      237,0000  ZeroHalf: 18      618   27,56%
      0     0      171,8233    32      237,0000      Cuts: 14      641   27,50%
      0     0      172,1147    32      237,0000      Cuts: 48      676   27,38%
      0     0      172,3805    32      237,0000  ZeroHalf: 14      700   27,27%
      0     0      172,4567    32      237,0000  ZeroHalf: 15      718   27,23%
      0     0      172,5454    32      237,0000  ZeroHalf: 22      737   27,20%
      0     0      172,7873    32      237,0000  ZeroHalf: 20      768   27,09%
      0     0      172,9803    32      237,0000      Cuts: 51      800   27,01%
      0     0      173,1429    32      237,0000  ZeroHalf: 14      826   26,94%
      0     0      173,3905    32      237,0000      Cuts: 27      858   26,84%
      0     0      173,4845    32      237,0000   ZeroHalf: 7      879   26,80%
      0     0      173,5830    32      237,0000      Cuts: 38      912   26,76%
      0     0      173,6893    32      237,0000  ZeroHalf: 13      938   26,71%
      0     0      173,8027    32      237,0000   ZeroHalf: 9      968   26,67%
      0     0      173,8788    32      237,0000      Cuts: 27      997   26,63%
      0     0      173,9512    32      237,0000      Cuts: 31     1023   26,60%
*     0+    0                          236,0000      173,9512            26,29%
      0     0        cutoff            236,0000      236,0000     1049    0,00%
Elapsed time = 0,15 sec. (95,64 ticks, tree = 0,01 MB, solutions = 4)

Clique cuts applied:  5
Cover cuts applied:  8
Flow cuts applied:  3
Mixed integer rounding cuts applied:  18
Zero-half cuts applied:  50
Gomory fractional cuts applied:  2

Root node processing (before b&c):
  Real time             =    0,15 sec. (95,66 ticks)
Parallel b&c, 16 threads:
  Real time             =    0,00 sec. (0,00 ticks)
  Sync time (average)   =    0,00 sec.
  Wait time (average)   =    0,00 sec.
                          ------------
Total (root+branch&cut) =    0,15 sec. (95,66 ticks)
